\ designed for glpk
\ run with:  glpsol --lp routing_equations.lp -o routing_equations.out

\ example 3x3 network

\ variable format:
\ P_i_j_T_k_N_l_m = x
\ i,j : originating node (packet ID)
\ k   : time slot
\ l,m : location in time slot k

\ minimize total hops
minimize
P_0_0_T_1_N_0_0 + P_0_0_T_1_N_0_1 + P_0_0_T_1_N_0_2 + P_0_0_T_1_N_1_0 + P_0_0_T_1_N_1_2 + P_0_0_T_1_N_2_0 + P_0_0_T_1_N_2_1 + P_0_0_T_1_N_2_2
+ P_0_1_T_1_N_0_0 + P_0_1_T_1_N_0_1 + P_0_1_T_1_N_0_2 + P_0_1_T_1_N_1_0 + P_0_1_T_1_N_1_2 + P_0_1_T_1_N_2_0 + P_0_1_T_1_N_2_1 + P_0_1_T_1_N_2_2
+ P_0_2_T_1_N_0_0 + P_0_2_T_1_N_0_1 + P_0_2_T_1_N_0_2 + P_0_2_T_1_N_1_0 + P_0_2_T_1_N_1_2 + P_0_2_T_1_N_2_0 + P_0_2_T_1_N_2_1 + P_0_2_T_1_N_2_2
+ P_1_0_T_1_N_0_0 + P_1_0_T_1_N_0_1 + P_1_0_T_1_N_0_2 + P_1_0_T_1_N_1_0 + P_1_0_T_1_N_1_2 + P_1_0_T_1_N_2_0 + P_1_0_T_1_N_2_1 + P_1_0_T_1_N_2_2
+ P_1_2_T_1_N_0_0 + P_1_2_T_1_N_0_1 + P_1_2_T_1_N_0_2 + P_1_2_T_1_N_1_0 + P_1_2_T_1_N_1_2 + P_1_2_T_1_N_2_0 + P_1_2_T_1_N_2_1 + P_1_2_T_1_N_2_2
+ P_2_0_T_1_N_0_0 + P_2_0_T_1_N_0_1 + P_2_0_T_1_N_0_2 + P_2_0_T_1_N_1_0 + P_2_0_T_1_N_1_2 + P_2_0_T_1_N_2_0 + P_2_0_T_1_N_2_1 + P_2_0_T_1_N_2_2
+ P_2_1_T_1_N_0_0 + P_2_1_T_1_N_0_1 + P_2_1_T_1_N_0_2 + P_2_1_T_1_N_1_0 + P_2_1_T_1_N_1_2 + P_2_1_T_1_N_2_0 + P_2_1_T_1_N_2_1 + P_2_1_T_1_N_2_2
+ P_2_2_T_1_N_0_0 + P_2_2_T_1_N_0_1 + P_2_2_T_1_N_0_2 + P_2_2_T_1_N_1_0 + P_2_2_T_1_N_1_2 + P_2_2_T_1_N_2_0 + P_2_2_T_1_N_2_1 + P_2_2_T_1_N_2_2
+ P_0_0_T_2_N_0_0 + P_0_0_T_2_N_0_1 + P_0_0_T_2_N_0_2 + P_0_0_T_2_N_1_0 + P_0_0_T_2_N_1_2 + P_0_0_T_2_N_2_0 + P_0_0_T_2_N_2_1 + P_0_0_T_2_N_2_2
+ P_0_1_T_2_N_0_0 + P_0_1_T_2_N_0_1 + P_0_1_T_2_N_0_2 + P_0_1_T_2_N_1_0 + P_0_1_T_2_N_1_2 + P_0_1_T_2_N_2_0 + P_0_1_T_2_N_2_1 + P_0_1_T_2_N_2_2
+ P_0_2_T_2_N_0_0 + P_0_2_T_2_N_0_1 + P_0_2_T_2_N_0_2 + P_0_2_T_2_N_1_0 + P_0_2_T_2_N_1_2 + P_0_2_T_2_N_2_0 + P_0_2_T_2_N_2_1 + P_0_2_T_2_N_2_2
+ P_1_0_T_2_N_0_0 + P_1_0_T_2_N_0_1 + P_1_0_T_2_N_0_2 + P_1_0_T_2_N_1_0 + P_1_0_T_2_N_1_2 + P_1_0_T_2_N_2_0 + P_1_0_T_2_N_2_1 + P_1_0_T_2_N_2_2
+ P_1_2_T_2_N_0_0 + P_1_2_T_2_N_0_1 + P_1_2_T_2_N_0_2 + P_1_2_T_2_N_1_0 + P_1_2_T_2_N_1_2 + P_1_2_T_2_N_2_0 + P_1_2_T_2_N_2_1 + P_1_2_T_2_N_2_2
+ P_2_0_T_2_N_0_0 + P_2_0_T_2_N_0_1 + P_2_0_T_2_N_0_2 + P_2_0_T_2_N_1_0 + P_2_0_T_2_N_1_2 + P_2_0_T_2_N_2_0 + P_2_0_T_2_N_2_1 + P_2_0_T_2_N_2_2
+ P_2_1_T_2_N_0_0 + P_2_1_T_2_N_0_1 + P_2_1_T_2_N_0_2 + P_2_1_T_2_N_1_0 + P_2_1_T_2_N_1_2 + P_2_1_T_2_N_2_0 + P_2_1_T_2_N_2_1 + P_2_1_T_2_N_2_2
+ P_2_2_T_2_N_0_0 + P_2_2_T_2_N_0_1 + P_2_2_T_2_N_0_2 + P_2_2_T_2_N_1_0 + P_2_2_T_2_N_1_2 + P_2_2_T_2_N_2_0 + P_2_2_T_2_N_2_1 + P_2_2_T_2_N_2_2

subject to
\ each packet can only be in one place at a time (assume at most 3 time slots)
P_0_0_T_0_N_0_0 + P_0_0_T_0_N_0_1 + P_0_0_T_0_N_0_2 + P_0_0_T_0_N_1_0 + P_0_0_T_0_N_1_2 + P_0_0_T_0_N_2_0 + P_0_0_T_0_N_2_1 + P_0_0_T_0_N_2_2 <= 1
P_0_0_T_1_N_0_0 + P_0_0_T_1_N_0_1 + P_0_0_T_1_N_0_2 + P_0_0_T_1_N_1_0 + P_0_0_T_1_N_1_2 + P_0_0_T_1_N_2_0 + P_0_0_T_1_N_2_1 + P_0_0_T_1_N_2_2 <= 1
P_0_0_T_2_N_0_0 + P_0_0_T_2_N_0_1 + P_0_0_T_2_N_0_2 + P_0_0_T_2_N_1_0 + P_0_0_T_2_N_1_2 + P_0_0_T_2_N_2_0 + P_0_0_T_2_N_2_1 + P_0_0_T_2_N_2_2 <= 1

\ each packet not at master must move one position in one tick
\ packet 0,0
P_0_0_T_1_N_2_0 + P_0_0_T_1_N_1_0 + P_0_0_T_1_N_0_2 + P_0_0_T_1_N_0_1 - P_0_0_T_0_N_0_0 >= 0
P_0_0_T_1_N_2_1 + P_0_0_T_1_N_1_1 + P_0_0_T_1_N_0_0 + P_0_0_T_1_N_0_2 - P_0_0_T_0_N_0_1 >= 0
P_0_0_T_1_N_2_2 + P_0_0_T_1_N_1_2 + P_0_0_T_1_N_0_1 + P_0_0_T_1_N_0_0 - P_0_0_T_0_N_0_2 >= 0
P_0_0_T_1_N_0_0 + P_0_0_T_1_N_2_0 + P_0_0_T_1_N_1_2 + P_0_0_T_1_N_1_1 - P_0_0_T_0_N_1_0 >= 0
P_0_0_T_1_N_0_2 + P_0_0_T_1_N_2_2 + P_0_0_T_1_N_1_1 + P_0_0_T_1_N_0_0 - P_0_0_T_0_N_1_2 >= 0
P_0_0_T_1_N_1_0 + P_0_0_T_1_N_0_0 + P_0_0_T_1_N_2_2 + P_0_0_T_1_N_2_1 - P_0_0_T_0_N_2_0 >= 0
P_0_0_T_1_N_1_1 + P_0_0_T_1_N_0_1 + P_0_0_T_1_N_2_0 + P_0_0_T_1_N_2_2 - P_0_0_T_0_N_2_1 >= 0
P_0_0_T_1_N_1_2 + P_0_0_T_1_N_0_2 + P_0_0_T_1_N_2_1 + P_0_0_T_1_N_2_0 - P_0_0_T_0_N_2_2 >= 0

P_0_0_T_2_N_2_0 + P_0_0_T_2_N_1_0 + P_0_0_T_2_N_0_2 + P_0_0_T_2_N_0_1 - P_0_0_T_1_N_0_0 >= 0
P_0_0_T_2_N_2_1 + P_0_0_T_2_N_1_1 + P_0_0_T_2_N_0_0 + P_0_0_T_2_N_0_2 - P_0_0_T_1_N_0_1 >= 0
P_0_0_T_2_N_2_2 + P_0_0_T_2_N_1_2 + P_0_0_T_2_N_0_1 + P_0_0_T_2_N_0_0 - P_0_0_T_1_N_0_2 >= 0
P_0_0_T_2_N_0_0 + P_0_0_T_2_N_2_0 + P_0_0_T_2_N_1_2 + P_0_0_T_2_N_1_1 - P_0_0_T_1_N_1_0 >= 0
P_0_0_T_2_N_0_2 + P_0_0_T_2_N_2_2 + P_0_0_T_2_N_1_1 + P_0_0_T_2_N_0_0 - P_0_0_T_1_N_1_2 >= 0
P_0_0_T_2_N_1_0 + P_0_0_T_2_N_0_0 + P_0_0_T_2_N_2_2 + P_0_0_T_2_N_2_1 - P_0_0_T_1_N_2_0 >= 0
P_0_0_T_2_N_1_1 + P_0_0_T_2_N_0_1 + P_0_0_T_2_N_2_0 + P_0_0_T_2_N_2_2 - P_0_0_T_1_N_2_1 >= 0
P_0_0_T_2_N_1_2 + P_0_0_T_2_N_0_2 + P_0_0_T_2_N_2_1 + P_0_0_T_2_N_2_0 - P_0_0_T_1_N_2_2 >= 0

\ packet 0,1
P_0_1_T_1_N_2_0 + P_0_1_T_1_N_1_0 + P_0_1_T_1_N_0_2 + P_0_1_T_1_N_0_1 - P_0_1_T_0_N_0_0 >= 0
P_0_1_T_1_N_2_1 + P_0_1_T_1_N_1_1 + P_0_1_T_1_N_0_0 + P_0_1_T_1_N_0_2 - P_0_1_T_0_N_0_1 >= 0
P_0_1_T_1_N_2_2 + P_0_1_T_1_N_1_2 + P_0_1_T_1_N_0_1 + P_0_1_T_1_N_0_0 - P_0_1_T_0_N_0_2 >= 0
P_0_1_T_1_N_0_0 + P_0_1_T_1_N_2_0 + P_0_1_T_1_N_1_2 + P_0_1_T_1_N_1_1 - P_0_1_T_0_N_1_0 >= 0
P_0_1_T_1_N_0_2 + P_0_1_T_1_N_2_2 + P_0_1_T_1_N_1_1 + P_0_1_T_1_N_0_0 - P_0_1_T_0_N_1_2 >= 0
P_0_1_T_1_N_1_0 + P_0_1_T_1_N_0_0 + P_0_1_T_1_N_2_2 + P_0_1_T_1_N_2_1 - P_0_1_T_0_N_2_0 >= 0
P_0_1_T_1_N_1_1 + P_0_1_T_1_N_0_1 + P_0_1_T_1_N_2_0 + P_0_1_T_1_N_2_2 - P_0_1_T_0_N_2_1 >= 0
P_0_1_T_1_N_1_2 + P_0_1_T_1_N_0_2 + P_0_1_T_1_N_2_1 + P_0_1_T_1_N_2_0 - P_0_1_T_0_N_2_2 >= 0

P_0_1_T_2_N_2_0 + P_0_1_T_2_N_1_0 + P_0_1_T_2_N_0_2 + P_0_1_T_2_N_0_1 - P_0_1_T_1_N_0_0 >= 0
P_0_1_T_2_N_2_1 + P_0_1_T_2_N_1_1 + P_0_1_T_2_N_0_0 + P_0_1_T_2_N_0_2 - P_0_1_T_1_N_0_1 >= 0
P_0_1_T_2_N_2_2 + P_0_1_T_2_N_1_2 + P_0_1_T_2_N_0_1 + P_0_1_T_2_N_0_0 - P_0_1_T_1_N_0_2 >= 0
P_0_1_T_2_N_0_0 + P_0_1_T_2_N_2_0 + P_0_1_T_2_N_1_2 + P_0_1_T_2_N_1_1 - P_0_1_T_1_N_1_0 >= 0
P_0_1_T_2_N_0_2 + P_0_1_T_2_N_2_2 + P_0_1_T_2_N_1_1 + P_0_1_T_2_N_0_0 - P_0_1_T_1_N_1_2 >= 0
P_0_1_T_2_N_1_0 + P_0_1_T_2_N_0_0 + P_0_1_T_2_N_2_2 + P_0_1_T_2_N_2_1 - P_0_1_T_1_N_2_0 >= 0
P_0_1_T_2_N_1_1 + P_0_1_T_2_N_0_1 + P_0_1_T_2_N_2_0 + P_0_1_T_2_N_2_2 - P_0_1_T_1_N_2_1 >= 0
P_0_1_T_2_N_1_2 + P_0_1_T_2_N_0_2 + P_0_1_T_2_N_2_1 + P_0_1_T_2_N_2_0 - P_0_1_T_1_N_2_2 >= 0

\ packet 0,2
P_0_2_T_1_N_2_0 + P_0_2_T_1_N_1_0 + P_0_2_T_1_N_0_2 + P_0_2_T_1_N_0_1 - P_0_2_T_0_N_0_0 >= 0
P_0_2_T_1_N_2_1 + P_0_2_T_1_N_1_1 + P_0_2_T_1_N_0_0 + P_0_2_T_1_N_0_2 - P_0_2_T_0_N_0_1 >= 0
P_0_2_T_1_N_2_2 + P_0_2_T_1_N_1_2 + P_0_2_T_1_N_0_1 + P_0_2_T_1_N_0_0 - P_0_2_T_0_N_0_2 >= 0
P_0_2_T_1_N_0_0 + P_0_2_T_1_N_2_0 + P_0_2_T_1_N_1_2 + P_0_2_T_1_N_1_1 - P_0_2_T_0_N_1_0 >= 0
P_0_2_T_1_N_0_2 + P_0_2_T_1_N_2_2 + P_0_2_T_1_N_1_1 + P_0_2_T_1_N_0_0 - P_0_2_T_0_N_1_2 >= 0
P_0_2_T_1_N_1_0 + P_0_2_T_1_N_0_0 + P_0_2_T_1_N_2_2 + P_0_2_T_1_N_2_1 - P_0_2_T_0_N_2_0 >= 0
P_0_2_T_1_N_1_1 + P_0_2_T_1_N_0_1 + P_0_2_T_1_N_2_0 + P_0_2_T_1_N_2_2 - P_0_2_T_0_N_2_1 >= 0
P_0_2_T_1_N_1_2 + P_0_2_T_1_N_0_2 + P_0_2_T_1_N_2_1 + P_0_2_T_1_N_2_0 - P_0_2_T_0_N_2_2 >= 0

P_0_2_T_2_N_2_0 + P_0_2_T_2_N_1_0 + P_0_2_T_2_N_0_2 + P_0_2_T_2_N_0_1 - P_0_2_T_1_N_0_0 >= 0
P_0_2_T_2_N_2_1 + P_0_2_T_2_N_1_1 + P_0_2_T_2_N_0_0 + P_0_2_T_2_N_0_2 - P_0_2_T_1_N_0_1 >= 0
P_0_2_T_2_N_2_2 + P_0_2_T_2_N_1_2 + P_0_2_T_2_N_0_1 + P_0_2_T_2_N_0_0 - P_0_2_T_1_N_0_2 >= 0
P_0_2_T_2_N_0_0 + P_0_2_T_2_N_2_0 + P_0_2_T_2_N_1_2 + P_0_2_T_2_N_1_1 - P_0_2_T_1_N_1_0 >= 0
P_0_2_T_2_N_0_2 + P_0_2_T_2_N_2_2 + P_0_2_T_2_N_1_1 + P_0_2_T_2_N_0_0 - P_0_2_T_1_N_1_2 >= 0
P_0_2_T_2_N_1_0 + P_0_2_T_2_N_0_0 + P_0_2_T_2_N_2_2 + P_0_2_T_2_N_2_1 - P_0_2_T_1_N_2_0 >= 0
P_0_2_T_2_N_1_1 + P_0_2_T_2_N_0_1 + P_0_2_T_2_N_2_0 + P_0_2_T_2_N_2_2 - P_0_2_T_1_N_2_1 >= 0
P_0_2_T_2_N_1_2 + P_0_2_T_2_N_0_2 + P_0_2_T_2_N_2_1 + P_0_2_T_2_N_2_0 - P_0_2_T_1_N_2_2 >= 0

\ packet 1,0
P_1_0_T_1_N_2_0 + P_1_0_T_1_N_1_0 + P_1_0_T_1_N_0_2 + P_1_0_T_1_N_0_1 - P_1_0_T_0_N_0_0 >= 0
P_1_0_T_1_N_2_1 + P_1_0_T_1_N_1_1 + P_1_0_T_1_N_0_0 + P_1_0_T_1_N_0_2 - P_1_0_T_0_N_0_1 >= 0
P_1_0_T_1_N_2_2 + P_1_0_T_1_N_1_2 + P_1_0_T_1_N_0_1 + P_1_0_T_1_N_0_0 - P_1_0_T_0_N_0_2 >= 0
P_1_0_T_1_N_0_0 + P_1_0_T_1_N_2_0 + P_1_0_T_1_N_1_2 + P_1_0_T_1_N_1_1 - P_1_0_T_0_N_1_0 >= 0
P_1_0_T_1_N_0_2 + P_1_0_T_1_N_2_2 + P_1_0_T_1_N_1_1 + P_1_0_T_1_N_0_0 - P_1_0_T_0_N_1_2 >= 0
P_1_0_T_1_N_1_0 + P_1_0_T_1_N_0_0 + P_1_0_T_1_N_2_2 + P_1_0_T_1_N_2_1 - P_1_0_T_0_N_2_0 >= 0
P_1_0_T_1_N_1_1 + P_1_0_T_1_N_0_1 + P_1_0_T_1_N_2_0 + P_1_0_T_1_N_2_2 - P_1_0_T_0_N_2_1 >= 0
P_1_0_T_1_N_1_2 + P_1_0_T_1_N_0_2 + P_1_0_T_1_N_2_1 + P_1_0_T_1_N_2_0 - P_1_0_T_0_N_2_2 >= 0

P_1_0_T_2_N_2_0 + P_1_0_T_2_N_1_0 + P_1_0_T_2_N_0_2 + P_1_0_T_2_N_0_1 - P_1_0_T_1_N_0_0 >= 0
P_1_0_T_2_N_2_1 + P_1_0_T_2_N_1_1 + P_1_0_T_2_N_0_0 + P_1_0_T_2_N_0_2 - P_1_0_T_1_N_0_1 >= 0
P_1_0_T_2_N_2_2 + P_1_0_T_2_N_1_2 + P_1_0_T_2_N_0_1 + P_1_0_T_2_N_0_0 - P_1_0_T_1_N_0_2 >= 0
P_1_0_T_2_N_0_0 + P_1_0_T_2_N_2_0 + P_1_0_T_2_N_1_2 + P_1_0_T_2_N_1_1 - P_1_0_T_1_N_1_0 >= 0
P_1_0_T_2_N_0_2 + P_1_0_T_2_N_2_2 + P_1_0_T_2_N_1_1 + P_1_0_T_2_N_0_0 - P_1_0_T_1_N_1_2 >= 0
P_1_0_T_2_N_1_0 + P_1_0_T_2_N_0_0 + P_1_0_T_2_N_2_2 + P_1_0_T_2_N_2_1 - P_1_0_T_1_N_2_0 >= 0
P_1_0_T_2_N_1_1 + P_1_0_T_2_N_0_1 + P_1_0_T_2_N_2_0 + P_1_0_T_2_N_2_2 - P_1_0_T_1_N_2_1 >= 0
P_1_0_T_2_N_1_2 + P_1_0_T_2_N_0_2 + P_1_0_T_2_N_2_1 + P_1_0_T_2_N_2_0 - P_1_0_T_1_N_2_2 >= 0

\ packet 1,2
P_1_2_T_1_N_2_0 + P_1_2_T_1_N_1_0 + P_1_2_T_1_N_0_2 + P_1_2_T_1_N_0_1 - P_1_2_T_0_N_0_0 >= 0
P_1_2_T_1_N_2_1 + P_1_2_T_1_N_1_1 + P_1_2_T_1_N_0_0 + P_1_2_T_1_N_0_2 - P_1_2_T_0_N_0_1 >= 0
P_1_2_T_1_N_2_2 + P_1_2_T_1_N_1_2 + P_1_2_T_1_N_0_1 + P_1_2_T_1_N_0_0 - P_1_2_T_0_N_0_2 >= 0
P_1_2_T_1_N_0_0 + P_1_2_T_1_N_2_0 + P_1_2_T_1_N_1_2 + P_1_2_T_1_N_1_1 - P_1_2_T_0_N_1_0 >= 0
P_1_2_T_1_N_0_2 + P_1_2_T_1_N_2_2 + P_1_2_T_1_N_1_1 + P_1_2_T_1_N_0_0 - P_1_2_T_0_N_1_2 >= 0
P_1_2_T_1_N_1_0 + P_1_2_T_1_N_0_0 + P_1_2_T_1_N_2_2 + P_1_2_T_1_N_2_1 - P_1_2_T_0_N_2_0 >= 0
P_1_2_T_1_N_1_1 + P_1_2_T_1_N_0_1 + P_1_2_T_1_N_2_0 + P_1_2_T_1_N_2_2 - P_1_2_T_0_N_2_1 >= 0
P_1_2_T_1_N_1_2 + P_1_2_T_1_N_0_2 + P_1_2_T_1_N_2_1 + P_1_2_T_1_N_2_0 - P_1_2_T_0_N_2_2 >= 0

P_1_2_T_2_N_2_0 + P_1_2_T_2_N_1_0 + P_1_2_T_2_N_0_2 + P_1_2_T_2_N_0_1 - P_1_2_T_1_N_0_0 >= 0
P_1_2_T_2_N_2_1 + P_1_2_T_2_N_1_1 + P_1_2_T_2_N_0_0 + P_1_2_T_2_N_0_2 - P_1_2_T_1_N_0_1 >= 0
P_1_2_T_2_N_2_2 + P_1_2_T_2_N_1_2 + P_1_2_T_2_N_0_1 + P_1_2_T_2_N_0_0 - P_1_2_T_1_N_0_2 >= 0
P_1_2_T_2_N_0_0 + P_1_2_T_2_N_2_0 + P_1_2_T_2_N_1_2 + P_1_2_T_2_N_1_1 - P_1_2_T_1_N_1_0 >= 0
P_1_2_T_2_N_0_2 + P_1_2_T_2_N_2_2 + P_1_2_T_2_N_1_1 + P_1_2_T_2_N_0_0 - P_1_2_T_1_N_1_2 >= 0
P_1_2_T_2_N_1_0 + P_1_2_T_2_N_0_0 + P_1_2_T_2_N_2_2 + P_1_2_T_2_N_2_1 - P_1_2_T_1_N_2_0 >= 0
P_1_2_T_2_N_1_1 + P_1_2_T_2_N_0_1 + P_1_2_T_2_N_2_0 + P_1_2_T_2_N_2_2 - P_1_2_T_1_N_2_1 >= 0
P_1_2_T_2_N_1_2 + P_1_2_T_2_N_0_2 + P_1_2_T_2_N_2_1 + P_1_2_T_2_N_2_0 - P_1_2_T_1_N_2_2 >= 0

\ packet 2,0
P_2_0_T_1_N_2_0 + P_2_0_T_1_N_1_0 + P_2_0_T_1_N_0_2 + P_2_0_T_1_N_0_1 - P_2_0_T_0_N_0_0 >= 0
P_2_0_T_1_N_2_1 + P_2_0_T_1_N_1_1 + P_2_0_T_1_N_0_0 + P_2_0_T_1_N_0_2 - P_2_0_T_0_N_0_1 >= 0
P_2_0_T_1_N_2_2 + P_2_0_T_1_N_1_2 + P_2_0_T_1_N_0_1 + P_2_0_T_1_N_0_0 - P_2_0_T_0_N_0_2 >= 0
P_2_0_T_1_N_0_0 + P_2_0_T_1_N_2_0 + P_2_0_T_1_N_1_2 + P_2_0_T_1_N_1_1 - P_2_0_T_0_N_1_0 >= 0
P_2_0_T_1_N_0_2 + P_2_0_T_1_N_2_2 + P_2_0_T_1_N_1_1 + P_2_0_T_1_N_0_0 - P_2_0_T_0_N_1_2 >= 0
P_2_0_T_1_N_1_0 + P_2_0_T_1_N_0_0 + P_2_0_T_1_N_2_2 + P_2_0_T_1_N_2_1 - P_2_0_T_0_N_2_0 >= 0
P_2_0_T_1_N_1_1 + P_2_0_T_1_N_0_1 + P_2_0_T_1_N_2_0 + P_2_0_T_1_N_2_2 - P_2_0_T_0_N_2_1 >= 0
P_2_0_T_1_N_1_2 + P_2_0_T_1_N_0_2 + P_2_0_T_1_N_2_1 + P_2_0_T_1_N_2_0 - P_2_0_T_0_N_2_2 >= 0

P_2_0_T_2_N_2_0 + P_2_0_T_2_N_1_0 + P_2_0_T_2_N_0_2 + P_2_0_T_2_N_0_1 - P_2_0_T_1_N_0_0 >= 0
P_2_0_T_2_N_2_1 + P_2_0_T_2_N_1_1 + P_2_0_T_2_N_0_0 + P_2_0_T_2_N_0_2 - P_2_0_T_1_N_0_1 >= 0
P_2_0_T_2_N_2_2 + P_2_0_T_2_N_1_2 + P_2_0_T_2_N_0_1 + P_2_0_T_2_N_0_0 - P_2_0_T_1_N_0_2 >= 0
P_2_0_T_2_N_0_0 + P_2_0_T_2_N_2_0 + P_2_0_T_2_N_1_2 + P_2_0_T_2_N_1_1 - P_2_0_T_1_N_1_0 >= 0
P_2_0_T_2_N_0_2 + P_2_0_T_2_N_2_2 + P_2_0_T_2_N_1_1 + P_2_0_T_2_N_0_0 - P_2_0_T_1_N_1_2 >= 0
P_2_0_T_2_N_1_0 + P_2_0_T_2_N_0_0 + P_2_0_T_2_N_2_2 + P_2_0_T_2_N_2_1 - P_2_0_T_1_N_2_0 >= 0
P_2_0_T_2_N_1_1 + P_2_0_T_2_N_0_1 + P_2_0_T_2_N_2_0 + P_2_0_T_2_N_2_2 - P_2_0_T_1_N_2_1 >= 0
P_2_0_T_2_N_1_2 + P_2_0_T_2_N_0_2 + P_2_0_T_2_N_2_1 + P_2_0_T_2_N_2_0 - P_2_0_T_1_N_2_2 >= 0

\ packet 2,1
P_2_1_T_1_N_2_0 + P_2_1_T_1_N_1_0 + P_2_1_T_1_N_0_2 + P_2_1_T_1_N_0_1 - P_2_1_T_0_N_0_0 >= 0
P_2_1_T_1_N_2_1 + P_2_1_T_1_N_1_1 + P_2_1_T_1_N_0_0 + P_2_1_T_1_N_0_2 - P_2_1_T_0_N_0_1 >= 0
P_2_1_T_1_N_2_2 + P_2_1_T_1_N_1_2 + P_2_1_T_1_N_0_1 + P_2_1_T_1_N_0_0 - P_2_1_T_0_N_0_2 >= 0
P_2_1_T_1_N_0_0 + P_2_1_T_1_N_2_0 + P_2_1_T_1_N_1_2 + P_2_1_T_1_N_1_1 - P_2_1_T_0_N_1_0 >= 0
P_2_1_T_1_N_0_2 + P_2_1_T_1_N_2_2 + P_2_1_T_1_N_1_1 + P_2_1_T_1_N_0_0 - P_2_1_T_0_N_1_2 >= 0
P_2_1_T_1_N_1_0 + P_2_1_T_1_N_0_0 + P_2_1_T_1_N_2_2 + P_2_1_T_1_N_2_1 - P_2_1_T_0_N_2_0 >= 0
P_2_1_T_1_N_1_1 + P_2_1_T_1_N_0_1 + P_2_1_T_1_N_2_0 + P_2_1_T_1_N_2_2 - P_2_1_T_0_N_2_1 >= 0
P_2_1_T_1_N_1_2 + P_2_1_T_1_N_0_2 + P_2_1_T_1_N_2_1 + P_2_1_T_1_N_2_0 - P_2_1_T_0_N_2_2 >= 0

P_2_1_T_2_N_2_0 + P_2_1_T_2_N_1_0 + P_2_1_T_2_N_0_2 + P_2_1_T_2_N_0_1 - P_2_1_T_1_N_0_0 >= 0
P_2_1_T_2_N_2_1 + P_2_1_T_2_N_1_1 + P_2_1_T_2_N_0_0 + P_2_1_T_2_N_0_2 - P_2_1_T_1_N_0_1 >= 0
P_2_1_T_2_N_2_2 + P_2_1_T_2_N_1_2 + P_2_1_T_2_N_0_1 + P_2_1_T_2_N_0_0 - P_2_1_T_1_N_0_2 >= 0
P_2_1_T_2_N_0_0 + P_2_1_T_2_N_2_0 + P_2_1_T_2_N_1_2 + P_2_1_T_2_N_1_1 - P_2_1_T_1_N_1_0 >= 0
P_2_1_T_2_N_0_2 + P_2_1_T_2_N_2_2 + P_2_1_T_2_N_1_1 + P_2_1_T_2_N_0_0 - P_2_1_T_1_N_1_2 >= 0
P_2_1_T_2_N_1_0 + P_2_1_T_2_N_0_0 + P_2_1_T_2_N_2_2 + P_2_1_T_2_N_2_1 - P_2_1_T_1_N_2_0 >= 0
P_2_1_T_2_N_1_1 + P_2_1_T_2_N_0_1 + P_2_1_T_2_N_2_0 + P_2_1_T_2_N_2_2 - P_2_1_T_1_N_2_1 >= 0
P_2_1_T_2_N_1_2 + P_2_1_T_2_N_0_2 + P_2_1_T_2_N_2_1 + P_2_1_T_2_N_2_0 - P_2_1_T_1_N_2_2 >= 0

\ packet 2,2
P_2_2_T_1_N_2_0 + P_2_2_T_1_N_1_0 + P_2_2_T_1_N_0_2 + P_2_2_T_1_N_0_1 - P_2_2_T_0_N_0_0 >= 0
P_2_2_T_1_N_2_1 + P_2_2_T_1_N_1_1 + P_2_2_T_1_N_0_0 + P_2_2_T_1_N_0_2 - P_2_2_T_0_N_0_1 >= 0
P_2_2_T_1_N_2_2 + P_2_2_T_1_N_1_2 + P_2_2_T_1_N_0_1 + P_2_2_T_1_N_0_0 - P_2_2_T_0_N_0_2 >= 0
P_2_2_T_1_N_0_0 + P_2_2_T_1_N_2_0 + P_2_2_T_1_N_1_2 + P_2_2_T_1_N_1_1 - P_2_2_T_0_N_1_0 >= 0
P_2_2_T_1_N_0_2 + P_2_2_T_1_N_2_2 + P_2_2_T_1_N_1_1 + P_2_2_T_1_N_0_0 - P_2_2_T_0_N_1_2 >= 0
P_2_2_T_1_N_1_0 + P_2_2_T_1_N_0_0 + P_2_2_T_1_N_2_2 + P_2_2_T_1_N_2_1 - P_2_2_T_0_N_2_0 >= 0
P_2_2_T_1_N_1_1 + P_2_2_T_1_N_0_1 + P_2_2_T_1_N_2_0 + P_2_2_T_1_N_2_2 - P_2_2_T_0_N_2_1 >= 0
P_2_2_T_1_N_1_2 + P_2_2_T_1_N_0_2 + P_2_2_T_1_N_2_1 + P_2_2_T_1_N_2_0 - P_2_2_T_0_N_2_2 >= 0

P_2_2_T_2_N_2_0 + P_2_2_T_2_N_1_0 + P_2_2_T_2_N_0_2 + P_2_2_T_2_N_0_1 - P_2_2_T_1_N_0_0 >= 0
P_2_2_T_2_N_2_1 + P_2_2_T_2_N_1_1 + P_2_2_T_2_N_0_0 + P_2_2_T_2_N_0_2 - P_2_2_T_1_N_0_1 >= 0
P_2_2_T_2_N_2_2 + P_2_2_T_2_N_1_2 + P_2_2_T_2_N_0_1 + P_2_2_T_2_N_0_0 - P_2_2_T_1_N_0_2 >= 0
P_2_2_T_2_N_0_0 + P_2_2_T_2_N_2_0 + P_2_2_T_2_N_1_2 + P_2_2_T_2_N_1_1 - P_2_2_T_1_N_1_0 >= 0
P_2_2_T_2_N_0_2 + P_2_2_T_2_N_2_2 + P_2_2_T_2_N_1_1 + P_2_2_T_2_N_0_0 - P_2_2_T_1_N_1_2 >= 0
P_2_2_T_2_N_1_0 + P_2_2_T_2_N_0_0 + P_2_2_T_2_N_2_2 + P_2_2_T_2_N_2_1 - P_2_2_T_1_N_2_0 >= 0
P_2_2_T_2_N_1_1 + P_2_2_T_2_N_0_1 + P_2_2_T_2_N_2_0 + P_2_2_T_2_N_2_2 - P_2_2_T_1_N_2_1 >= 0
P_2_2_T_2_N_1_2 + P_2_2_T_2_N_0_2 + P_2_2_T_2_N_2_1 + P_2_2_T_2_N_2_0 - P_2_2_T_1_N_2_2 >= 0

\ maximum routing distance

\ initial positions of each packet
P_0_0_T_0_N_0_0 = 1
P_0_1_T_0_N_0_1 = 1
P_0_2_T_0_N_0_2 = 1
P_1_0_T_0_N_1_0 = 1
P_1_2_T_0_N_1_2 = 1
P_2_0_T_0_N_2_0 = 1
P_2_1_T_0_N_2_1 = 1
P_2_2_T_0_N_2_2 = 1

binary
\general

P_0_0_T_0_N_0_0
P_0_0_T_0_N_0_1
P_0_0_T_0_N_0_2
P_0_0_T_0_N_1_0
P_0_0_T_0_N_1_2
P_0_0_T_0_N_2_0
P_0_0_T_0_N_2_1
P_0_0_T_0_N_2_2

P_0_1_T_0_N_0_0
P_0_1_T_0_N_0_1
P_0_1_T_0_N_0_2
P_0_1_T_0_N_1_0
P_0_1_T_0_N_1_2
P_0_1_T_0_N_2_0
P_0_1_T_0_N_2_1
P_0_1_T_0_N_2_2

P_0_2_T_0_N_0_0
P_0_2_T_0_N_0_1
P_0_2_T_0_N_0_2
P_0_2_T_0_N_1_0
P_0_2_T_0_N_1_2
P_0_2_T_0_N_2_0
P_0_2_T_0_N_2_1
P_0_2_T_0_N_2_2

P_1_0_T_0_N_0_0
P_1_0_T_0_N_0_1
P_1_0_T_0_N_0_2
P_1_0_T_0_N_1_0
P_1_0_T_0_N_1_2
P_1_0_T_0_N_2_0
P_1_0_T_0_N_2_1
P_1_0_T_0_N_2_2

P_1_2_T_0_N_0_0
P_1_2_T_0_N_0_1
P_1_2_T_0_N_0_2
P_1_2_T_0_N_1_0
P_1_2_T_0_N_1_2
P_1_2_T_0_N_2_0
P_1_2_T_0_N_2_1
P_1_2_T_0_N_2_2

P_2_0_T_0_N_0_0
P_2_0_T_0_N_0_1
P_2_0_T_0_N_0_2
P_2_0_T_0_N_1_0
P_2_0_T_0_N_1_2
P_2_0_T_0_N_2_0
P_2_0_T_0_N_2_1
P_2_0_T_0_N_2_2

P_2_1_T_0_N_0_0
P_2_1_T_0_N_0_1
P_2_1_T_0_N_0_2
P_2_1_T_0_N_1_0
P_2_1_T_0_N_1_2
P_2_1_T_0_N_2_0
P_2_1_T_0_N_2_1
P_2_1_T_0_N_2_2

P_2_2_T_0_N_0_0
P_2_2_T_0_N_0_1
P_2_2_T_0_N_0_2
P_2_2_T_0_N_1_0
P_2_2_T_0_N_1_2
P_2_2_T_0_N_2_0
P_2_2_T_0_N_2_1
P_2_2_T_0_N_2_2

P_0_0_T_1_N_0_0
P_0_0_T_1_N_0_1
P_0_0_T_1_N_0_2
P_0_0_T_1_N_1_0
P_0_0_T_1_N_1_2
P_0_0_T_1_N_2_0
P_0_0_T_1_N_2_1
P_0_0_T_1_N_2_2

P_0_1_T_1_N_0_0
P_0_1_T_1_N_0_1
P_0_1_T_1_N_0_2
P_0_1_T_1_N_1_0
P_0_1_T_1_N_1_2
P_0_1_T_1_N_2_0
P_0_1_T_1_N_2_1
P_0_1_T_1_N_2_2

P_0_2_T_1_N_0_0
P_0_2_T_1_N_0_1
P_0_2_T_1_N_0_2
P_0_2_T_1_N_1_0
P_0_2_T_1_N_1_2
P_0_2_T_1_N_2_0
P_0_2_T_1_N_2_1
P_0_2_T_1_N_2_2

P_1_0_T_1_N_0_0
P_1_0_T_1_N_0_1
P_1_0_T_1_N_0_2
P_1_0_T_1_N_1_0
P_1_0_T_1_N_1_2
P_1_0_T_1_N_2_0
P_1_0_T_1_N_2_1
P_1_0_T_1_N_2_2

P_1_2_T_1_N_0_0
P_1_2_T_1_N_0_1
P_1_2_T_1_N_0_2
P_1_2_T_1_N_1_0
P_1_2_T_1_N_1_2
P_1_2_T_1_N_2_0
P_1_2_T_1_N_2_1
P_1_2_T_1_N_2_2

P_2_0_T_1_N_0_0
P_2_0_T_1_N_0_1
P_2_0_T_1_N_0_2
P_2_0_T_1_N_1_0
P_2_0_T_1_N_1_2
P_2_0_T_1_N_2_0
P_2_0_T_1_N_2_1
P_2_0_T_1_N_2_2

P_2_1_T_1_N_0_0
P_2_1_T_1_N_0_1
P_2_1_T_1_N_0_2
P_2_1_T_1_N_1_0
P_2_1_T_1_N_1_2
P_2_1_T_1_N_2_0
P_2_1_T_1_N_2_1
P_2_1_T_1_N_2_2

P_2_2_T_1_N_0_0
P_2_2_T_1_N_0_1
P_2_2_T_1_N_0_2
P_2_2_T_1_N_1_0
P_2_2_T_1_N_1_2
P_2_2_T_1_N_2_0
P_2_2_T_1_N_2_1
P_2_2_T_1_N_2_2

P_0_0_T_2_N_0_0
P_0_0_T_2_N_0_1
P_0_0_T_2_N_0_2
P_0_0_T_2_N_1_0
P_0_0_T_2_N_1_2
P_0_0_T_2_N_2_0
P_0_0_T_2_N_2_1
P_0_0_T_2_N_2_2

P_0_1_T_2_N_0_0
P_0_1_T_2_N_0_1
P_0_1_T_2_N_0_2
P_0_1_T_2_N_1_0
P_0_1_T_2_N_1_2
P_0_1_T_2_N_2_0
P_0_1_T_2_N_2_1
P_0_1_T_2_N_2_2

P_0_2_T_2_N_0_0
P_0_2_T_2_N_0_1
P_0_2_T_2_N_0_2
P_0_2_T_2_N_1_0
P_0_2_T_2_N_1_2
P_0_2_T_2_N_2_0
P_0_2_T_2_N_2_1
P_0_2_T_2_N_2_2

P_1_0_T_2_N_0_0
P_1_0_T_2_N_0_1
P_1_0_T_2_N_0_2
P_1_0_T_2_N_1_0
P_1_0_T_2_N_1_2
P_1_0_T_2_N_2_0
P_1_0_T_2_N_2_1
P_1_0_T_2_N_2_2

P_1_2_T_2_N_0_0
P_1_2_T_2_N_0_1
P_1_2_T_2_N_0_2
P_1_2_T_2_N_1_0
P_1_2_T_2_N_1_2
P_1_2_T_2_N_2_0
P_1_2_T_2_N_2_1
P_1_2_T_2_N_2_2

P_2_0_T_2_N_0_0
P_2_0_T_2_N_0_1
P_2_0_T_2_N_0_2
P_2_0_T_2_N_1_0
P_2_0_T_2_N_1_2
P_2_0_T_2_N_2_0
P_2_0_T_2_N_2_1
P_2_0_T_2_N_2_2

P_2_1_T_2_N_0_0
P_2_1_T_2_N_0_1
P_2_1_T_2_N_0_2
P_2_1_T_2_N_1_0
P_2_1_T_2_N_1_2
P_2_1_T_2_N_2_0
P_2_1_T_2_N_2_1
P_2_1_T_2_N_2_2

P_2_2_T_2_N_0_0
P_2_2_T_2_N_0_1
P_2_2_T_2_N_0_2
P_2_2_T_2_N_1_0
P_2_2_T_2_N_1_2
P_2_2_T_2_N_2_0
P_2_2_T_2_N_2_1
P_2_2_T_2_N_2_2

end
